lbl,CUST NO.,READY TIME,XCOORD.,YCOORD.,DEMAND,DUE DATE,SERVICE TIME
19,164,49,97,29,30,229,90
19,66,50,97,28,20,230,90
19,12,134,95,35,10,314,90
19,147,142,96,26,10,322,90
19,160,235,99,26,40,415,90
19,47,327,99,28,30,507,90
19,91,420,98,31,20,600,90
19,70,516,103,34,30,696,90
